100	5
25	1000
20
30
10
40
20
20
20
10
20
30
40
20
10
10
20
20
20
20
40
10
10
40
30
10
20
30
20
10
10
10
20
10
10
30
20
40
10
30
10
30
20
10
20
10
10
10
10
10
10
30
19
3
5
16
16
19
23
20
19
17
9
3
6
17
16
16
9
21
27
23
14
8
5
8
16
31
7
27
30
13
10
9
14
18
2
28
13
19
25
6
13
14
3
23
6
26
35
9
15
3
40	50	0	960	0	0
25	85	431	911	10	2
22	75	30	510	10	3
22	85	291	771	10	3
20	80	674	734	10	3
20	85	40	520	10	1
18	75	393	502	10	2
15	75	120	600	10	3
15	80	397	457	10	1
10	35	401	461	10	2
10	40	535	622	10	1
8	40	225	285	10	2
8	45	43	523	10	1
5	35	683	743	10	1
5	45	35	366	10	1
2	40	204	264	10	3
0	40	204	425	10	2
0	45	698	827	10	2
44	5	306	483	10	1
42	10	199	428	10	2
42	15	494	699	10	3
40	5	45	525	10	3
40	15	383	486	10	2
38	5	231	291	10	1
38	15	609	872	10	1
35	5	821	881	10	1
95	30	349	829	10	3
95	35	138	273	10	1
92	30	78	339	10	1
90	35	132	375	10	1
88	30	252	359	10	1
88	35	50	530	10	3
87	30	562	799	10	2
85	25	71	208	10	1
85	35	307	787	10	1
67	85	655	778	10	1
65	85	43	186	10	1
65	82	377	857	10	2
62	80	308	368	10	1
60	80	46	201	10	2
60	85	339	438	10	1
58	75	377	494	10	2
55	80	33	166	10	3
55	85	531	736	10	2
55	82	247	307	10	1
20	82	37	177	10	1
18	80	432	665	10	3
2	45	38	322	10	3
42	5	424	904	10	2
42	12	460	539	10	3
72	35	327	807	10	1
55	20	273	498	10	3
25	30	25	505	10	3
20	50	405	465	10	2
55	60	554	767	10	2
30	60	629	689	10	2
50	35	560	673	10	2
30	25	342	571	10	1
15	10	842	902	10	3
10	20	42	522	10	1
15	60	623	884	10	1
45	65	214	421	10	1
65	35	197	257	10	1
65	20	39	316	10	2
45	30	191	310	10	3
35	40	11	140	10	1
41	37	570	681	10	3
64	42	298	358	10	2
40	60	613	730	10	3
31	52	187	247	10	1
35	69	780	930	10	1
65	55	191	410	10	2
63	65	27	507	10	2
2	60	240	451	10	2
20	20	675	735	10	3
5	5	57	537	10	3
60	12	298	358	10	1
23	3	794	854	10	3
8	56	366	483	10	2
6	68	382	442	10	3
47	47	817	942	10	2
49	58	332	497	10	1
27	43	14	494	10	1
37	31	19	499	10	2
57	29	425	485	10	2
63	23	164	644	10	1
21	24	310	507	10	1
12	24	389	449	10	1
24	58	262	377	10	1
67	5	611	897	10	3
37	47	311	526	10	3
49	42	457	937	10	3
53	43	14	74	10	3
61	52	789	928	10	1
57	48	212	692	10	2
56	37	20	500	10	2
55	54	382	862	10	3
4	18	516	697	10	1
26	52	14	494	10	2
26	35	338	398	10	3
31	67	870	930	10	3
56	46	0	960	5	4
29	20	0	960	5	4
9	18	0	960	5	4
49	42	0	960	5	4
10	77	0	960	5	4
0	0	0	0	1	
0	0	0	0	1	
0	0	0	0	1	
0	0	0	0	1	
0	0	0	0	0	
0	0	0	0	1	
0	0	0	0	1	
0	0	0	0	0	
0	0	1	0	0	
0	0	0	0	0	
0	0	1	0	0	
0	0	0	0	0	
0	0	0	0	0	
0	0	0	0	0	
0	0	1	0	0	
0	0	1	0	0	
0	0	1	0	0	
0	0	0	0	0	
0	1	0	0	0	
0	1	0	0	0	
0	1	0	0	0	
0	1	0	0	0	
0	0	0	0	0	
0	0	0	0	0	
0	0	0	0	0	
1	0	0	0	0	
0	0	0	0	0	
0	0	0	0	0	
0	0	0	0	0	
0	0	0	0	0	
1	0	0	0	0	
1	0	0	0	0	
0	0	0	0	0	
0	0	0	0	0	
0	0	0	0	0	
0	0	0	0	0	
1	0	0	0	0	
0	0	0	0	0	
1	0	0	0	0	
0	0	0	0	0	
1	0	0	0	0	
1	0	0	0	0	
1	0	0	0	0	
0	0	0	0	0	
0	0	0	0	0	
0	0	0	0	1	
0	0	1	0	0	
0	1	0	0	0	
0	1	0	0	0	
0	0	0	0	0	
0	0	0	1	0	
0	1	0	0	0	
0	0	0	0	1	
1	0	0	0	0	
0	0	0	1	0	
0	0	0	1	0	
0	0	0	0	0	
0	0	1	0	0	
0	0	0	0	0	
0	0	0	0	0	
0	0	0	0	0	
0	0	0	0	0	
0	0	0	1	0	
0	0	0	1	0	
0	0	0	0	0	
0	0	0	1	0	
1	0	0	0	0	
0	0	0	1	0	
0	0	0	0	0	
0	0	0	0	0	
1	0	0	0	0	
1	0	0	0	0	
0	0	0	0	1	
0	1	0	0	0	
0	0	1	0	0	
0	0	0	0	0	
0	1	0	0	0	
0	0	0	0	1	
0	0	0	0	1	
0	0	0	1	0	
0	0	0	0	0	
0	0	0	0	0	
0	1	0	0	0	
0	0	0	1	0	
0	0	0	0	0	
0	0	0	0	0	
0	0	0	0	0	
0	0	0	0	0	
0	1	0	0	0	
0	0	0	1	0	
0	0	0	1	0	
0	0	0	1	0	
0	0	0	0	0	
1	0	0	0	0	
0	0	0	1	0	
1	0	0	0	0	
0	0	0	0	0	
0	0	0	1	0	
0	1	0	0	0	
0	0	0	0	1	
